c A SAT instance generated from a 3-CNF formula that had 40 clauses and 10 variables
p cnf 10 40
-8 2 7 0
-8 -1 -10 0
-1 -10 2 0
7 -3 -4 0
5 1 -8 0
10 -4 -6 0
-3 9 -1 0
6 -5 -1 0
4 -3 -8 0
-10 -8 -6 0
-7 -3 5 0
-3 -9 -4 0
2 -3 4 0
1 2 6 0
9 -4 -1 0
4 -2 10 0
1 -2 -6 0
-10 -2 -3 0
4 5 1 0
-6 1 9 0
10 8 5 0
-6 8 2 0
-7 -2 -4 0
6 -3 8 0
-10 2 -7 0
2 6 -1 0
-1 -4 8 0
-7 -3 -9 0
-2 10 -9 0
10 4 -6 0
-2 -10 -5 0
9 -3 -6 0
8 6 -7 0
7 8 2 0
7 -6 -2 0
-10 4 6 0
-8 -4 10 0
8 6 9 0
-8 7 -5 0
-6 -3 2 0
